c Random 9-CNF over 40 variables and 80 clauses
c Generated with `cnfgen`
c (C) 2012-2016 Massimo Lauria <lauria.massimo@gmail.com>
c https://massimolauria.github.io/cnfgen
c
c COMMAND LINE: cnfgen --output tmp-9-40-80.dimacs --output-format dimacs randkcnf 9 40 80
c
c sdimacs generated by gen-sdimacs
c
p cnf 40 80
r 0.5 1 2 3 4 5 6 7 8 9 10 11 12 13 14 15 16 17 18 19 20 0
e  21 22 23 24 25 26 27 28 29 30 31 32 33 34 35 36 37 38 39 40 0
1 -4 -16 -17 21 23 -27 32 33 0
-3 5 15 -21 -24 -26 27 29 -39 0
3 -18 19 -21 -23 27 31 33 -37 0
-2 5 9 13 18 -20 21 36 -37 0
-3 4 13 -14 -17 30 32 -34 -36 0
-3 7 11 -12 14 22 23 -25 -32 0
-3 4 10 -12 -14 15 30 35 -38 0
3 9 -15 21 26 29 32 -35 -40 0
3 5 -15 -16 -18 23 25 -26 -33 0
1 9 -10 -12 -22 -29 -32 -33 39 0
-2 5 -6 9 -18 -20 28 36 -37 0
-2 -9 -15 -18 24 25 -31 -35 -39 0
-4 5 -13 16 24 26 -31 -37 -40 0
-6 9 11 13 -19 22 -28 30 39 0
-10 -11 -12 13 15 18 -19 -21 -25 0
-3 -7 -11 21 -24 -27 30 -36 39 0
-5 -7 -9 -14 16 -22 30 -38 -40 0
6 9 15 19 -21 -23 -30 37 38 0
4 -6 -16 17 -18 20 26 -37 -38 0
13 -20 22 -23 29 32 35 -37 -38 0
2 9 11 24 25 29 -34 -37 38 0
-1 -11 13 16 -19 20 21 -22 39 0
-9 12 14 -22 23 26 35 -37 38 0
2 5 -9 12 15 -22 -25 32 -35 0
-3 4 15 -17 -18 -21 -25 29 -39 0
1 -4 -8 12 -13 -24 27 29 38 0
-1 2 4 -9 11 20 27 -35 -39 0
1 2 15 18 21 -26 -28 -30 -37 0
2 -8 -13 16 -20 21 25 26 -30 0
5 7 10 11 15 -23 31 -33 -35 0
1 11 21 24 26 35 -36 37 -38 0
6 -8 15 -18 -24 28 29 30 35 0
1 4 7 8 -10 12 21 31 -39 0
-4 6 -10 -18 19 -27 29 30 -33 0
-6 7 19 21 -23 -28 -35 -37 -40 0
-6 -11 -13 19 20 32 34 39 -40 0
-3 -4 5 15 -27 30 34 -35 37 0
-2 5 18 -20 22 26 35 38 40 0
-1 -4 14 -17 22 -23 -30 -32 36 0
5 14 -15 -16 19 21 22 28 -34 0
-1 -4 6 -9 -14 19 29 -36 -39 0
1 -4 -5 15 -21 24 31 -34 -37 0
4 -7 -8 13 15 18 31 -33 39 0
1 -2 3 -6 8 -11 -18 -23 28 0
-13 -20 21 22 -25 -30 -31 -33 34 0
-8 11 -12 19 -24 -26 -32 34 35 0
-2 -3 -5 8 15 -25 31 -37 -38 0
-1 -2 -4 -14 -21 22 -30 35 36 0
-1 2 -3 -5 -19 -24 28 29 34 0
1 3 5 -7 -9 10 29 34 36 0
1 8 -22 29 -32 33 -35 36 -39 0
8 13 16 23 28 -33 34 38 39 0
-1 2 6 -7 -10 -22 -24 -29 -36 0
2 3 -4 -11 12 18 24 33 34 0
-3 8 -12 22 23 24 30 -31 -32 0
1 -5 17 -19 -20 -28 -33 36 -40 0
1 -3 4 7 9 17 22 31 -34 0
3 17 -19 25 -26 -34 -36 37 -38 0
-3 -4 -8 13 17 -18 28 35 -40 0
-2 -10 16 -18 -24 28 29 -32 -39 0
12 13 16 -18 23 -26 34 38 -39 0
-4 -8 -16 18 -22 26 -29 37 39 0
8 -10 15 17 -19 22 23 32 40 0
-1 12 17 18 21 24 -28 -38 40 0
-1 9 11 14 -15 16 21 31 39 0
2 5 9 -11 27 -30 -32 33 40 0
1 3 4 10 -17 -22 27 31 40 0
2 -3 7 8 -15 -18 25 34 -36 0
-5 -14 -16 -20 -26 -27 -30 -32 -34 0
3 -8 9 10 15 16 -22 31 38 0
-4 -6 13 16 -18 -19 -35 37 -39 0
3 -5 -6 -8 -15 18 28 30 -39 0
4 5 10 15 20 -25 28 32 -38 0
3 13 17 20 27 31 32 -37 -39 0
-11 -14 -20 -21 25 -29 -30 -35 -36 0
1 6 8 16 28 29 33 -34 -39 0
1 3 -19 23 28 -29 -31 -37 38 0
4 -5 10 19 27 31 36 -37 -39 0
2 4 7 20 21 25 -33 -39 40 0
5 10 -16 23 27 32 33 -34 -37 0
